7

0   8   9   7   6   20   20
8   0   14   2   24   11   9
9   14   0   15   18   19   4
7   2   15   0   8   17   16
6   24   18   8   0   14   10
20   11   19   17   14   0   17
20   9   4   16   10   17   0

0   10   45   60   22   27   31
10   0   49   70   30   37   41
45   49   0   53   23   42   26
60   70   53   0   40   33   29
22   30   23   40   0   19   11
27   37   42   33   19   0   16
31   41   26   29   11   16   0